m = 9; 
n = 11; 
min_k = 1; 
max_k = 1; 
test_scale_rows_only = 0 ; 

A = [|0,0,1000,1000,1000,1000,1000,1000,1000,1000,0|11520,1000,1000,-1000,0,0,0,0,0,0,-310020|-11520,-1000,-1000,1000,0,0,0,0,0,0,310020|12714,1000,0,0,1000,-1000,0,0,0,0,-188749|-12714,-1000,0,0,-1000,1000,0,0,0,0,188749|-37273,1000,0,0,0,0,1000,-1000,0,0,938943|37273,-1000,0,0,0,0,-1000,1000,0,0,-938943|12064,1000,0,0,0,0,0,0,1000,-1000,-187473|-12064,-1000,0,0,0,0,0,0,-1000,1000,187473|];

lowerBoundsMatA = [|1000,0,0,0,0,0,0,0,0,0,-499999999|0,1000,0,0,0,0,0,0,0,0,-499999999|0,0,1000,0,0,0,0,0,0,0,0|0,0,0,1000,0,0,0,0,0,0,0|0,0,0,0,1000,0,0,0,0,0,0|0,0,0,0,0,1000,0,0,0,0,0|0,0,0,0,0,0,1000,0,0,0,0|0,0,0,0,0,0,0,1000,0,0,0|0,0,0,0,0,0,0,0,1000,0,0|0,0,0,0,0,0,0,0,0,1000,0|];

upperBoundsMatA = [|-1000,0,0,0,0,0,0,0,0,0,1000|0,-1000,0,0,0,0,0,0,0,0,-499999999|0,0,-1000,0,0,0,0,0,0,0,-499999999|0,0,0,-1000,0,0,0,0,0,0,-499999999|0,0,0,0,-1000,0,0,0,0,0,-127766|0,0,0,0,0,-1000,0,0,0,0,-127766|0,0,0,0,0,0,-1000,0,0,0,-49416|0,0,0,0,0,0,0,-1000,0,0,-49416|0,0,0,0,0,0,0,0,-1000,0,-113340|0,0,0,0,0,0,0,0,0,-1000,-113340|];

B = [|0,1000,0,1000,1000,1000,1000,1000,1000,1000,0|-12714,0,-1000,0,-1000,1000,0,0,0,0,188749|-11520,-1000,-1000,1000,0,0,0,0,0,0,310020|12714,0,1000,0,1000,-1000,0,0,0,0,-188749|11520,1000,1000,-1000,0,0,0,0,0,0,-310020|-37273,0,1000,0,0,0,0,-1000,0,1000,938943|37273,0,-1000,0,0,0,0,1000,0,-1000,-938943|12064,0,1000,0,0,0,-1000,0,1000,0,-187473|-12064,0,-1000,0,0,0,1000,0,-1000,0,187473|];

lowerBoundsMatB = [|1000,0,0,0,0,0,0,0,0,0,-499999999|0,1000,0,0,0,0,0,0,0,0,0|0,0,1000,0,0,0,0,0,0,0,-499999999|0,0,0,1000,0,0,0,0,0,0,0|0,0,0,0,1000,0,0,0,0,0,0|0,0,0,0,0,1000,0,0,0,0,0|0,0,0,0,0,0,1000,0,0,0,0|0,0,0,0,0,0,0,1000,0,0,0|0,0,0,0,0,0,0,0,1000,0,0|0,0,0,0,0,0,0,0,0,1000,0|];

upperBoundsMatB = [|-1000,0,0,0,0,0,0,0,0,0,1000|0,-1000,0,0,0,0,0,0,0,0,-499999999|0,0,-1000,0,0,0,0,0,0,0,-499999999|0,0,0,-1000,0,0,0,0,0,0,-499999999|0,0,0,0,-1000,0,0,0,0,0,-127766|0,0,0,0,0,-1000,0,0,0,0,-127766|0,0,0,0,0,0,-1000,0,0,0,-113340|0,0,0,0,0,0,0,-1000,0,0,-49416|0,0,0,0,0,0,0,0,-1000,0,-113340|0,0,0,0,0,0,0,0,0,-1000,-49416|];

